
Starting CP-SAT solver v9.15.6755
Parameters: random_seed: 2026073171 max_time_in_seconds: 2353.7102866533332 log_search_progress: true cp_model_presolve: true linearization_level: 2 num_search_workers: 4 cp_model_probing_level: 2 symmetry_level: 2

Initial satisfaction model '': (model_fingerprint: 0xbe57391e8ce27d96)
#Variables: 724 (608 primary variables)
  - 724 Booleans in [0,1]
#kBoolAnd: 110 (#enforced: 110) (#literals: 330)
#kBoolOr: 110 (#enforced: 110) (#literals: 220)
#kExactlyOne: 87 (#literals: 261)
#kLinear1: 32 (#enforced: 6)
#kLinear2: 336 (#enforced: 336) (#complex_domain: 110)
#kLinear3: 1'600 (#enforced: 6)
#kLinearN: 1'132 (#enforced: 243) (#terms: 9'111)

Starting presolve at 0.00s
  6.26e-04s  0.00e+00d  [DetectDominanceRelations] 
  8.67e-03s  0.00e+00d  [PresolveToFixPoint] #num_loops=3 #num_dual_strengthening=1 
  3.36e-05s  0.00e+00d  [ExtractEncodingFromLinear] #potential_supersets=82 
  2.56e-04s  0.00e+00d  [DetectDuplicateColumns] 
  9.67e-05s  0.00e+00d  [DetectDuplicateConstraints] #duplicates=5 
[Symmetry] Graph for symmetry has 4'869 nodes and 15'718 arcs.
[Symmetry] Symmetry computation done. time: 0.00110827 dtime: 0.00179815
[SAT presolve] num removable Booleans: 220 / 626
[SAT presolve] num trivial clauses: 0
[SAT presolve] [0s] clauses:2'730 literals:7'422 vars:506 one_side_vars:66 simple_definition:1 singleton_clauses:0
[SAT presolve] [0.000218861s] clauses:2'729 literals:7'415 vars:506 one_side_vars:66 simple_definition:1 singleton_clauses:0
[SAT presolve] [0.000592943s] clauses:2'408 literals:6'910 vars:389 one_side_vars:68 simple_definition:24 singleton_clauses:0
  1.12e-04s  0.00e+00d  [DetectDuplicateConstraintsWithDifferentEnforcements] 
  5.56e-03s  2.66e-03d  [Probe] #probed=1'300 #fixed_bools=16 #equiv=9 #new_binary_clauses=827 
  5.38e-04s  3.50e-04d  [MaxClique] Merged 653 constraints with 1'423 literals into 581 constraints with 1'301 literals
  7.89e-04s  0.00e+00d  [DetectDominanceRelations] 
  3.07e-03s  0.00e+00d  [PresolveToFixPoint] #num_loops=1 #num_dual_strengthening=1 
  1.19e-03s  0.00e+00d  [ProcessAtMostOneAndLinear] 
  1.02e-04s  0.00e+00d  [DetectDuplicateConstraints] #duplicates=10 
  7.77e-05s  0.00e+00d  [DetectDuplicateConstraintsWithDifferentEnforcements] 
  2.94e-03s  9.59e-05d  [DetectDominatedLinearConstraints] #relevant_constraints=828 #num_inclusions=474 #num_redundant=7 
  1.20e-04s  0.00e+00d  [DetectDifferentVariables] 
  7.88e-04s  8.86e-05d  [ProcessSetPPC] #relevant_constraints=3'151 #num_inclusions=233 
  2.82e-04s  3.42e-05d  [TransformClausesToExactlyOne] #num_amos=583 #num_clauses=1'757 #num_checked=1'757 
  6.52e-05s  0.00e+00d  [DetectEncodedComplexDomains] 
  3.16e-05s  1.90e-07d  [FindAlmostIdenticalLinearConstraints] #num_tested_pairs=2 
  9.67e-04s  1.40e-03d  [FindBigAtMostOneAndLinearOverlap] 
  1.52e-03s  1.23e-03d  [FindBigVerticalLinearOverlap] #blocks=2 #saved_nz=68 
  3.63e-04s  6.69e-04d  [FindBigHorizontalLinearOverlap] #linears=457 
  3.49e-04s  2.78e-05d  [MergeClauses] #num_collisions=11 #num_merges=11 #num_saved_literals=43 
  7.83e-04s  0.00e+00d  [DetectDominanceRelations] 
  2.97e-03s  0.00e+00d  [PresolveToFixPoint] #num_loops=2 #num_dual_strengthening=1 
  7.68e-04s  0.00e+00d  [DetectDominanceRelations] 
  2.91e-03s  0.00e+00d  [PresolveToFixPoint] #num_loops=1 #num_dual_strengthening=1 
  1.60e-04s  0.00e+00d  [DetectDuplicateColumns] 
  8.96e-05s  0.00e+00d  [DetectDuplicateConstraints] 
[Symmetry] Graph for symmetry has 4'447 nodes and 13'928 arcs.
[Symmetry] Symmetry computation done. time: 0.000958031 dtime: 0.00155516
[SAT presolve] num removable Booleans: 102 / 484
[SAT presolve] num trivial clauses: 0
[SAT presolve] [0s] clauses:2'302 literals:6'655 vars:458 one_side_vars:144 simple_definition:35 singleton_clauses:0
[SAT presolve] [0.000221243s] clauses:2'302 literals:6'496 vars:458 one_side_vars:157 simple_definition:82 singleton_clauses:0
[SAT presolve] [0.000348292s] clauses:2'170 literals:6'200 vars:453 one_side_vars:181 simple_definition:65 singleton_clauses:0
  1.41e-04s  0.00e+00d  [DetectDuplicateConstraintsWithDifferentEnforcements] #without_enforcements=1 
  4.60e-03s  1.65e-03d  [Probe] #probed=1'284 #new_binary_clauses=297 
  3.96e-04s  2.40e-04d  [MaxClique] Merged 504 constraints with 1'084 literals into 494 constraints with 1'078 literals
  7.81e-04s  0.00e+00d  [DetectDominanceRelations] 
  2.95e-03s  0.00e+00d  [PresolveToFixPoint] #num_loops=1 #num_dual_strengthening=1 
  1.10e-03s  0.00e+00d  [ProcessAtMostOneAndLinear] 
  9.85e-05s  0.00e+00d  [DetectDuplicateConstraints] 
  8.30e-05s  0.00e+00d  [DetectDuplicateConstraintsWithDifferentEnforcements] 
  1.52e-03s  6.79e-05d  [DetectDominatedLinearConstraints] #relevant_constraints=817 #num_inclusions=354 #num_redundant=1 
  1.21e-04s  0.00e+00d  [DetectDifferentVariables] 
  7.30e-04s  7.70e-05d  [ProcessSetPPC] #relevant_constraints=3'062 #num_inclusions=112 
  2.65e-04s  3.27e-05d  [TransformClausesToExactlyOne] #num_amos=496 #num_clauses=1'699 #num_checked=1'699 
  4.34e-05s  0.00e+00d  [DetectEncodedComplexDomains] 
  3.68e-05s  0.00e+00d  [FindAlmostIdenticalLinearConstraints] 
  8.87e-04s  1.23e-03d  [FindBigAtMostOneAndLinearOverlap] 
  1.38e-03s  1.03e-03d  [FindBigVerticalLinearOverlap] #blocks=3 #saved_nz=98 
  3.42e-04s  5.74e-04d  [FindBigHorizontalLinearOverlap] #linears=454 
  3.34e-04s  2.63e-05d  [MergeClauses] #num_collisions=73 #num_merges=73 #num_saved_literals=193 
  7.87e-04s  0.00e+00d  [DetectDominanceRelations] 
  3.00e-03s  0.00e+00d  [PresolveToFixPoint] #num_loops=2 #num_dual_strengthening=1 
  7.68e-04s  0.00e+00d  [DetectDominanceRelations] 
  2.88e-03s  0.00e+00d  [PresolveToFixPoint] #num_loops=1 #num_dual_strengthening=1 
  1.71e-04s  0.00e+00d  [DetectDuplicateColumns] 
  1.04e-04s  0.00e+00d  [DetectDuplicateConstraints] 
[Symmetry] Graph for symmetry has 4'253 nodes and 13'091 arcs.
[Symmetry] Symmetry computation done. time: 0.000893732 dtime: 0.0013466
[SAT presolve] num removable Booleans: 97 / 479
[SAT presolve] num trivial clauses: 0
[SAT presolve] [0s] clauses:2'155 literals:6'164 vars:453 one_side_vars:181 simple_definition:65 singleton_clauses:0
[SAT presolve] [0.000191066s] clauses:2'155 literals:6'164 vars:453 one_side_vars:181 simple_definition:65 singleton_clauses:0
[SAT presolve] [0.000247806s] clauses:2'155 literals:6'164 vars:453 one_side_vars:181 simple_definition:65 singleton_clauses:0
  1.14e-04s  0.00e+00d  [DetectDuplicateConstraintsWithDifferentEnforcements] 
  4.75e-03s  1.65e-03d  [Probe] #probed=1'284 #new_binary_clauses=296 
  3.72e-04s  2.38e-04d  [MaxClique] Merged 493 constraints with 1'068 literals into 492 constraints with 1'067 literals
  8.02e-04s  0.00e+00d  [DetectDominanceRelations] 
  2.99e-03s  0.00e+00d  [PresolveToFixPoint] #num_loops=1 #num_dual_strengthening=1 
  1.09e-03s  0.00e+00d  [ProcessAtMostOneAndLinear] 
  1.40e-04s  0.00e+00d  [DetectDuplicateConstraints] 
  9.47e-05s  0.00e+00d  [DetectDuplicateConstraintsWithDifferentEnforcements] 
  6.23e-04s  5.05e-05d  [DetectDominatedLinearConstraints] #relevant_constraints=814 #num_inclusions=256 #num_redundant=1 
  1.28e-04s  0.00e+00d  [DetectDifferentVariables] 
  7.19e-04s  7.16e-05d  [ProcessSetPPC] #relevant_constraints=3'059 #num_inclusions=82 
  2.90e-04s  3.27e-05d  [TransformClausesToExactlyOne] #num_amos=492 #num_clauses=1'701 #num_checked=1'701 
  5.61e-05s  0.00e+00d  [DetectEncodedComplexDomains] 
  4.55e-05s  0.00e+00d  [FindAlmostIdenticalLinearConstraints] 
  8.48e-04s  1.07e-03d  [FindBigAtMostOneAndLinearOverlap] 
  1.32e-03s  9.51e-04d  [FindBigVerticalLinearOverlap] #blocks=1 #saved_nz=193 
  3.26e-04s  5.32e-04d  [FindBigHorizontalLinearOverlap] #linears=454 
  3.55e-04s  2.63e-05d  [MergeClauses] #num_collisions=74 #num_merges=74 #num_saved_literals=195 
  8.09e-04s  0.00e+00d  [DetectDominanceRelations] 
  2.99e-03s  0.00e+00d  [PresolveToFixPoint] #num_loops=2 #num_dual_strengthening=1 
  2.39e-05s  0.00e+00d  [MergeNoOverlap] 
  2.32e-05s  0.00e+00d  [MergeNoOverlap2D] 

Presolve summary:
  - 43 affine relations were detected.
  - rule 'TODO dual: only one blocking constraint?' was applied 848 times.
  - rule 'TODO linear inclusion: superset is equality' was applied 198 times.
  - rule 'affine: new relation' was applied 43 times.
  - rule 'at_most_one: removed literals' was applied 61 times.
  - rule 'at_most_one: size one' was applied 60 times.
  - rule 'at_most_one: transformed into max clique' was applied 3 times.
  - rule 'bool_or: implications' was applied 75 times.
  - rule 'bool_or: only one literal' was applied 12 times.
  - rule 'bool_or: removed enforcement literal' was applied 557 times.
  - rule 'deductions: 857 stored' was applied 1 time.
  - rule 'duplicate: merged rhs of linear constraint' was applied 14 times.
  - rule 'duplicate: removed constraint' was applied 15 times.
  - rule 'duplicate: removed enforced constraint' was applied 1 time.
  - rule 'enforcement: false literal' was applied 38 times.
  - rule 'enforcement: true literal' was applied 12 times.
  - rule 'exactly_one: removed literals' was applied 32 times.
  - rule 'exactly_one: satisfied' was applied 3 times.
  - rule 'exactly_one: singleton' was applied 2 times.
  - rule 'exactly_one: size two' was applied 30 times.
  - rule 'exactly_one: x and not(x)' was applied 6 times.
  - rule 'incompatible linear: add implication' was applied 126 times.
  - rule 'linear + amo: empty after processing' was applied 6 times.
  - rule 'linear + amo: extracted enforcement literal' was applied 54 times.
  - rule 'linear inclusion: redundant containing constraint' was applied 3 times.
  - rule 'linear inclusion: redundant included constraint' was applied 3 times.
  - rule 'linear inclusion: sparsify superset' was applied 3 times.
  - rule 'linear matrix: common vertical rectangle' was applied 6 times.
  - rule 'linear1: always true' was applied 5 times.
  - rule 'linear1: x in domain' was applied 26 times.
  - rule 'linear2: convert ax + by != cte to clauses' was applied 260 times.
  - rule 'linear2: convert implied ax + by == cte to clauses' was applied 114 times.
  - rule 'linear2: implied ax + by = cte has only one solution' was applied 9 times.
  - rule 'linear: always true' was applied 414 times.
  - rule 'linear: empty' was applied 9 times.
  - rule 'linear: enforcement literal in expression' was applied 8 times.
  - rule 'linear: extracted at most one (max)' was applied 1 time.
  - rule 'linear: fixed or dup variables' was applied 888 times.
  - rule 'linear: negative clause' was applied 1'295 times.
  - rule 'linear: negative reified and' was applied 78 times.
  - rule 'linear: never in domain' was applied 6 times.
  - rule 'linear: positive at most one' was applied 30 times.
  - rule 'linear: reduced variable domains' was applied 7 times.
  - rule 'linear: remapped using affine relations' was applied 36 times.
  - rule 'presolve: 82 unused variables removed.' was applied 1 time.
  - rule 'presolve: iteration' was applied 3 times.
  - rule 'probing: bool_or reduced to implication' was applied 33 times.
  - rule 'probing: simplified clauses' was applied 9 times.
  - rule 'setppc: bool_or in at_most_one' was applied 7 times.
  - rule 'setppc: removed dominated constraints' was applied 87 times.
  - rule 'variables: both boolean and its negation fix the same variable' was applied 4 times.
  - rule 'variables: detect half reified value encoding' was applied 8 times.

Presolved satisfaction model '': (model_fingerprint: 0x443925b80b656a16)
#Variables: 481 (411 primary variables)
  - 479 Booleans in [0,1]
  - 1 in [0,2]
  - 1 in [0,9]
#kAtMostOne: 40 (#literals: 163)
#kBoolAnd: 261 (#enforced: 261) (#literals: 713)
#kBoolAndClauses: 74 (#enforced: 74 #multi: 74) (#literals: 343)
#kBoolOr: 1'553 (#literals: 4'718)
#kExactlyOne: 52 (#literals: 196)
#kLinearN: 814 (#enforced: 116) (#terms: 5'445)
[Symmetry] Graph for symmetry has 4'004 nodes and 12'875 arcs.
[Symmetry] Symmetry computation done. time: 0.000728477 dtime: 0.001315

Preloading model.
#Model   0.09s var:481/481 constraints:2794/2794

Starting search at 0.09s with 4 workers.
3 full problem subsolvers: [default_lp, max_lp, no_lp]
1 first solution subsolver: [fj]
2 interleaved subsolvers: [feasibility_pump, rins/rens]
2 helper subsolvers: [neighborhood_helper, synchronization_agent]

#Model   0.70s var:480/481 constraints:2794/2794
#Model   3.87s var:479/481 constraints:2794/2794
#Model  13.57s var:478/481 constraints:2779/2794
#Model  25.42s var:477/481 constraints:2777/2794
#Model  38.16s var:476/481 constraints:2776/2794
#Model 179.81s var:475/481 constraints:2774/2794
#Model 439.79s var:474/481 constraints:2774/2794
#Model 1673.93s var:473/481 constraints:2756/2794
#Model 2058.83s var:472/481 constraints:2737/2794
#Model 2141.67s var:471/481 constraints:2719/2794
#Model 2171.08s var:470/481 constraints:2704/2794
#Model 2247.53s var:469/481 constraints:2688/2794
#Model 2301.34s var:468/481 constraints:2670/2794
#Model 2309.88s var:467/481 constraints:2654/2794
#Model 2312.78s var:464/481 constraints:2628/2794
#Model 2313.50s var:459/481 constraints:2564/2794
#Model 2313.59s var:446/481 constraints:2376/2794
#Done  2313.64s no_lp
#Model 2313.64s var:336/481 constraints:1181/2794 compo:335,1

Task timing                   n [     min,      max]      avg      dev     time         n [     min,      max]      avg      dev    dtime
        'default_lp':         1 [  38.56m,   38.56m]   38.56m   0.00ns   38.56m         2 [  1.81ms,   37.53m]   18.76m   18.76m   37.53m
  'feasibility_pump':     11468 [866.15us, 170.66ms]   1.62ms   1.61ms   18.61s     11467 [270.06us, 146.78ms] 283.98us   1.37ms    3.26s
                'fj':      8030 [112.35ms, 199.56ms] 142.81ms  11.98ms   19.11m      8030 [100.00ms, 100.14ms] 100.02ms  14.13us   13.39m
            'max_lp':         1 [  38.56m,   38.56m]   38.56m   0.00ns   38.56m         2 [ 92.83ms,   51.09m]   25.55m   25.55m   51.10m
             'no_lp':         1 [  38.56m,   38.56m]   38.56m   0.00ns   38.56m         2 [  1.45ms,    1.34h]   40.17m   40.17m    1.34h
         'rins/rens':     10824 [881.33us, 182.61ms] 105.95ms  37.96ms   19.11m     10823 [361.02us, 100.38ms]  68.23ms  37.01ms   12.31m

Search stats     Bools   Conflicts    Branches  Restarts  BacktrackToRoot   Backtrack     BoolPropag  IntegerPropag
  'default_lp':    479     221'231   8'145'378     1'037        1'270'918   1'809'899     77'771'484     76'574'754
      'max_lp':    479      84'664  10'756'494       470        1'589'920   2'010'948     95'816'305    103'064'170
       'no_lp':    479  19'461'492  26'429'724    65'785          562'571  19'893'279  1'562'718'772    305'893'820

SAT formula      Fixed  Equiv  Total  VarLeft  BinaryClauses  PermanentClauses  TemporaryClauses
  'default_lp':     12      7    479      460          2'432            39'405             6'987
      'max_lp':     12      7    479      460          2'446            38'720             2'863
       'no_lp':    218      7    479      254          2'874            62'715             3'539

SAT stats        ClassicMinim   LitRemoved  LitRemovedBinary   LitLearned  LitForgotten   Subsumed
  'default_lp':       194'905    2'382'149           958'945    5'784'445     3'504'695     85'568
      'max_lp':        71'007      789'380           393'209    1'818'289       838'255     35'593
       'no_lp':    17'450'259  304'238'582        86'258'518  457'936'074   355'640'117  5'639'869

Vivification       Clauses   Decisions  LitTrue  Subsumed  LitRemoved  DecisionReused  Conflicts
  'default_lp':  1'334'638   7'625'918        5    20'361     212'652         396'133      2'115
      'max_lp':  1'606'879  10'333'797        0    22'298     229'938         414'450      2'152
       'no_lp':    426'246   3'582'711        0    29'058     373'930          97'249      1'839

Clause deletion    at_true  l_and_not(l)  to_binary  sub_conflict  sub_extra  sub_decisions  sub_eager  sub_vivify  sub_probing  sub_inpro  blocked  eliminated   forgotten    promoted   conflicts
    'default_lp':   12'731             4         15        84'290        598          3'201      1'278      20'361        4'287     18'966        0           0     106'562     425'397     221'231
        'max_lp':   14'490             3         12        35'180        226          1'016        413      22'298        4'588     13'773        0           0      29'298     139'991      84'664
         'no_lp':   96'746             4        123     5'541'403     36'754        239'603     98'466      29'058       14'936    191'507        0           0  13'151'366  43'577'812  19'461'492

Lp stats         Component  Iterations  AddedCuts  OPTIMAL  DUAL_F.  DUAL_U.
  'default_lp':          1  28'147'502     72'809  295'936        1  169'277
      'max_lp':          1  14'746'564     56'426   30'278   50'528   32'056

Lp dimension        Final dimension of first component
  'default_lp':    315 rows, 339 columns, 4479 entries
      'max_lp':  1317 rows, 481 columns, 12150 entries

Lp debug         CutPropag  CutEqPropag   Adjust  Overflow        Bad  BadScaling
  'default_lp':          0          211  169'253         0  1'881'887           0
      'max_lp':          1           98   32'053         0  1'553'373           0

Lp pool          Constraints  Updates  Simplif  Merged  Shortened  Split  Strengthened      Cuts/Call
  'default_lp':       10'577   16'477      963       0      1'148    520             1  72'809/84'956
      'max_lp':       12'556   17'346    1'284       2      1'353    689         1'513  56'426/76'978

Lp Cut            default_lp  max_lp
          CG_FF:         986     147
           CG_K:         549      10
          CG_KL:         438       2
           CG_R:       1'087      92
         Clique:           -     172
             IB:          17       3
       MIR_1_FF:         494     622
        MIR_1_K:         102      17
       MIR_1_KL:         305      16
        MIR_1_R:         450     245
       MIR_1_RB:           4       -
      MIR_1_RLT:           -   6'756
       MIR_2_FF:         845     475
        MIR_2_K:         239      74
       MIR_2_KL:         313      39
        MIR_2_R:       1'233     542
       MIR_2_RB:           1       1
       MIR_3_FF:         343     148
        MIR_3_K:          69      12
       MIR_3_KL:         121      12
        MIR_3_R:         757     209
       MIR_3_RB:           2       -
       MIR_4_FF:         150      40
        MIR_4_K:          25       4
       MIR_4_KL:          54       6
        MIR_4_R:         535     161
       MIR_5_FF:          33      12
        MIR_5_K:          12       1
       MIR_5_KL:           8       1
        MIR_5_R:         381     110
       MIR_6_FF:          18       5
        MIR_6_K:           6       1
       MIR_6_KL:           3       1
        MIR_6_R:         311     124
       MIR_6_RB:           1       -
   ZERO_HALF_FF:         402     485
    ZERO_HALF_K:          56       8
   ZERO_HALF_KL:         112      10
    ZERO_HALF_R:      62'308  45'846
   ZERO_HALF_RB:           1       3
  ZERO_HALF_RBP:          38      14

LNS stats       Improv/Calls  Closed  Difficulty  TimeLimit
  'rins/rens':   10823/10823     50%    8.11e-01       0.10

LS stats                                    Batches  Restarts/Perturbs    LinMoves   GenMoves  CompoundMoves  Bactracks  WeightUpdates  ScoreComputed
                             'fj_restart':      412                122  12'023'784          0              0          0     11'316'170      2'109'100
                    'fj_restart_compound':      426                132           0  4'875'953        339'725  2'267'846         10'231     77'820'775
                'fj_restart_compound_obj':      647                119           0  7'393'991        323'318  3'535'072         21'013    118'566'774
            'fj_restart_compound_perturb':      532                102           0  6'216'254        305'616  2'955'118         15'571     97'688'929
        'fj_restart_compound_perturb_obj':      389                114           0  4'466'172        280'102  2'092'811         10'072     71'110'607
                       'fj_restart_decay':      399                114  13'218'358          0              0          0        562'598      3'239'094
              'fj_restart_decay_compound':      536                118           0  6'855'163      1'134'303  2'860'097          7'293     99'290'354
          'fj_restart_decay_compound_obj':      521                100           0  6'721'371      1'109'387  2'805'745          7'059     96'532'271
      'fj_restart_decay_compound_perturb':      388                125           0  4'753'439        792'951  1'979'961          5'326     71'653'274
  'fj_restart_decay_compound_perturb_obj':      529                 94           0  6'877'806      1'134'578  2'871'318          7'176     98'046'939
                   'fj_restart_decay_obj':      367                100  12'149'568          0              0          0        516'091      3'076'765
               'fj_restart_decay_perturb':      749                104  24'860'210          0              0          0      1'056'600      5'992'239
           'fj_restart_decay_perturb_obj':      405                 93  13'419'608          0              0          0        569'386      3'459'220
                         'fj_restart_obj':    1'003                104  28'968'188          0              0          0     28'201'713      5'506'385
                     'fj_restart_perturb':      373                113  10'910'868          0              0          0      9'832'233      2'247'020
                 'fj_restart_perturb_obj':      354                112  10'454'264          0              0          0      9'263'484      1'572'641

Solution repositories    Added  Queried  Synchro
    'alternative_path':      0        0        0
      'best_solutions':      0        0        0
   'fj solution hints':  1'758        0    1'758
        'lp solutions':    780   10'824      777
                'pump':      0        0

Improving bounds shared    Num  Sym
            'default_lp':    6    0
                'max_lp':    2    0
                 'no_lp':  138    0

Clauses shared    #Exported  #Imported  #BinaryRead  #BinaryTotal
   'default_lp':      4'866     77'367          819         1'164
       'max_lp':      4'289     80'820          827         1'164
        'no_lp':     82'544      8'916        1'164         1'164

LRAT_status: NA
CpSolverResponse summary:
status: INFEASIBLE
objective: NA
best_bound: NA
integers: 339
booleans: 479
conflicts: 19461492
branches: 26429724
propagations: 1562718772
integer_propagations: 305893820
restarts: 65785
lp_iterations: 0
walltime: 2313.66
usertime: 2313.66
deterministic_time: 11682.9
gap_integral: 0

{
  "board_size": 22,
  "parity_proved": 0,
  "target": 34,
  "child_id": 1071,
  "child_count": 2640,
  "partition": "unknown_pair_x_diag_plus_twos_x_diag_minus_twos",
  "build_seconds": 0.08000040054321289,
  "workers": 4,
  "requested_seed": 2026073171,
  "effective_seed": 2026073171,
  "main_diagonal_pair": [
    2,
    17
  ],
  "pair_index": 54,
  "diag_plus_twos": 16,
  "diag_minus_twos": 15,
  "pair_excess": 0,
  "residual_certificate_slack": 112,
  "analytic_minimum_line_defect": 46,
  "analytic_defect_details": {
    "row_costs": {
      "12": 6,
      "13": 3,
      "14": 0,
      "15": 0,
      "16": 0,
      "17": 0
    },
    "column_costs": {
      "12": 6,
      "13": 3,
      "14": 0,
      "15": 0,
      "16": 0,
      "17": 0
    },
    "plus_cost": 24,
    "minus_cost": 22,
    "row_column_minimum": 0
  },
  "maximal_line_constraints": 2455,
  "analytic_infeasible": false,
  "allowed_points": 242,
  "status": "INFEASIBLE",
  "proof_method": "cp_sat_all_lines_with_certificate_profile_cuts",
  "elapsed_seconds": 2313.660010576248,
  "branches": 26429724,
  "conflicts": 19461492
}
